
--- Job EV_VD.gms Start 04/30/25 14:09:47 49.1.0 5c4d4ed6 WEX-WEI x86 64bit/MS Windows
--- Applying:
    C:\GAMS\49\gmsprmNT.txt
--- GAMS Parameters defined
    Input "C:\projekt\Velka data\EV\EV_VD.gms"
    PageSize 0
    ScrDir "C:\projekt\Velka data\EV\225a\"
    SysDir C:\GAMS\49\
    LogOption 3
    ErrMsg 1
    ErrorLog 99
    IDE 1
    LstTitleLeftAligned 1
Licensee: GAMS Demo, for EULA and demo limitations see   G250131/0001CB-GEN
          https://www.gams.com/latest/docs/UG%5FLicense.html         DC0000
          C:\GAMS\49\gamslice.txt
          Demo license for demonstration and instructional purposes only
System information: 12 physical cores and 16 Gb memory detected
GAMS 49.1.0   Copyright (C) 1987-2025 GAMS Development. All rights reserved
--- Starting compilation
--- EV_VD.gms(114) 3 Mb
--- Starting execution: elapsed 0:00:00.010
--- EV_VD.gms(31) 4 Mb
--- Generating LP model vyroba
--- EV_VD.gms(41) 4 Mb
---   17 rows  5 columns  45 non-zeroes
--- Range statistics (absolute non-zero finite values)
--- RHS       [min, max] : [ 2.000E+01, 4.500E+03] - Zero values observed as well
--- Bound     [min, max] : [        NA,        NA] - Zero values observed as well
--- Matrix    [min, max] : [ 1.000E+00, 1.500E+02]
--- Executing CPLEX (Solvelink=2): elapsed 0:00:00.017

IBM ILOG CPLEX   49.1.0 5c4d4ed6 Feb 15, 2025          WEI x86 64bit/MS Window

*** This solver runs with a demo license. No commercial use.
--- GMO setup time: 0.00s
--- GMO memory 0.50 Mb (peak 0.50 Mb)
--- Dictionary memory 0.00 Mb
--- Cplex 22.1.2.0 link memory 0.00 Mb (peak 0.00 Mb)
--- Starting Cplex

Version identifier: 22.1.2.0 | 2024-11-25 | 0edbb82fd
CPXPARAM_Advance                                 0
CPXPARAM_Simplex_Display                         2
CPXPARAM_MIP_Display                             4
CPXPARAM_MIP_Pool_Capacity                       0
CPXPARAM_MIP_Tolerances_AbsMIPGap                0
Tried aggregator 1 time.
LP Presolve eliminated 11 rows and 2 columns.
Reduced LP has 5 rows, 3 columns, and 15 nonzeros.
Presolve time = 0.00 sec. (0.01 ticks)

Iteration      Dual Objective            In Variable           Out Variable
     1           21085.000000                   x(3)         omez0(4) slack
     2           20110.000000                   x(2)         omez0(2) slack
     3           20013.157895                   x(1)         omez0(3) slack

--- LP status (1): optimal.
--- Cplex Time: 0.00sec (det. 0.02 ticks)


Optimal solution found
Objective:        20013.157895

--- Reading solution for model vyroba
--- Executing after solve: elapsed 0:00:00.046
--- EV_VD.gms(81) 4 Mb
--- Generating LP model vyroba
--- EV_VD.gms(83) 4 Mb
--- LOOPS s = 1
---   17 rows  5 columns  45 non-zeroes
--- Range statistics (absolute non-zero finite values)
--- RHS       [min, max] : [ 2.000E+01, 4.500E+03] - Zero values observed as well
--- Bound     [min, max] : [ 3.383E+01, 6.203E+01] - Zero values observed as well
--- Matrix    [min, max] : [ 1.000E+00, 1.500E+02]
--- Executing CPLEX (Solvelink=2): elapsed 0:00:00.052

IBM ILOG CPLEX   49.1.0 5c4d4ed6 Feb 15, 2025          WEI x86 64bit/MS Window

*** This solver runs with a demo license. No commercial use.
--- GMO setup time: 0.00s
--- GMO memory 0.50 Mb (peak 0.50 Mb)
--- Dictionary memory 0.00 Mb
--- Cplex 22.1.2.0 link memory 0.00 Mb (peak 0.00 Mb)
--- Starting Cplex

Version identifier: 22.1.2.0 | 2024-11-25 | 0edbb82fd
CPXPARAM_Advance                                 2
CPXPARAM_Simplex_Display                         2
CPXPARAM_MIP_Display                             4
CPXPARAM_MIP_Pool_Capacity                       0
CPXPARAM_MIP_Tolerances_AbsMIPGap                0
Infeasibility row 'omez0(2)':  0 <= -524.397.
Presolve time = 0.00 sec. (0.00 ticks)

--- LP status (3): infeasible.
--- Cplex Time: 0.00sec (det. 0.01 ticks)

--- Model has been proven infeasible
--- Reading solution for model vyroba
--- Executing after solve: elapsed 0:00:00.079
--- EV_VD.gms(81) 4 Mb
--- Generating LP model vyroba
--- EV_VD.gms(83) 4 Mb
--- LOOPS s = 2
---   17 rows  5 columns  45 non-zeroes
--- Range statistics (absolute non-zero finite values)
--- RHS       [min, max] : [ 2.000E+01, 4.500E+03] - Zero values observed as well
--- Bound     [min, max] : [ 3.383E+01, 6.203E+01] - Zero values observed as well
--- Matrix    [min, max] : [ 1.000E+00, 1.500E+02]
--- Executing CPLEX (Solvelink=2): elapsed 0:00:00.079

IBM ILOG CPLEX   49.1.0 5c4d4ed6 Feb 15, 2025          WEI x86 64bit/MS Window

*** This solver runs with a demo license. No commercial use.
--- GMO setup time: 0.00s
--- GMO memory 0.50 Mb (peak 0.50 Mb)
--- Dictionary memory 0.00 Mb
--- Cplex 22.1.2.0 link memory 0.00 Mb (peak 0.00 Mb)
--- Starting Cplex

Version identifier: 22.1.2.0 | 2024-11-25 | 0edbb82fd
CPXPARAM_Advance                                 2
CPXPARAM_Simplex_Display                         2
CPXPARAM_MIP_Display                             4
CPXPARAM_MIP_Pool_Capacity                       0
CPXPARAM_MIP_Tolerances_AbsMIPGap                0
Tried aggregator 1 time.
LP Presolve eliminated 16 rows and 5 columns.
All rows and columns eliminated.
Presolve time = 0.00 sec. (0.00 ticks)

--- LP status (1): optimal.
--- Cplex Time: 0.00sec (det. 0.02 ticks)


Optimal solution found
Objective:        20013.157895

--- Reading solution for model vyroba
--- Executing after solve: elapsed 0:00:00.108
--- EV_VD.gms(81) 4 Mb
--- Generating LP model vyroba
--- EV_VD.gms(83) 4 Mb
--- LOOPS s = 3
---   17 rows  5 columns  45 non-zeroes
--- Range statistics (absolute non-zero finite values)
--- RHS       [min, max] : [ 2.000E+01, 4.500E+03] - Zero values observed as well
--- Bound     [min, max] : [ 3.383E+01, 6.203E+01] - Zero values observed as well
--- Matrix    [min, max] : [ 1.000E+00, 1.500E+02]
--- Executing CPLEX (Solvelink=2): elapsed 0:00:00.108

IBM ILOG CPLEX   49.1.0 5c4d4ed6 Feb 15, 2025          WEI x86 64bit/MS Window

*** This solver runs with a demo license. No commercial use.
--- GMO setup time: 0.00s
--- GMO memory 0.50 Mb (peak 0.50 Mb)
--- Dictionary memory 0.00 Mb
--- Cplex 22.1.2.0 link memory 0.00 Mb (peak 0.00 Mb)
--- Starting Cplex

Version identifier: 22.1.2.0 | 2024-11-25 | 0edbb82fd
CPXPARAM_Advance                                 0
CPXPARAM_Simplex_Display                         2
CPXPARAM_MIP_Display                             4
CPXPARAM_MIP_Pool_Capacity                       0
CPXPARAM_MIP_Tolerances_AbsMIPGap                0
Infeasibility row 'omez1(3)':  0 >= 475.403.
Presolve time = 0.00 sec. (0.00 ticks)

--- LP status (3): infeasible.
--- Cplex Time: 0.00sec (det. 0.00 ticks)

--- Model has been proven infeasible
--- Reading solution for model vyroba
--- Executing after solve: elapsed 0:00:00.134
--- EV_VD.gms(114) 4 Mb
--- Putfile out C:\projekt\Velka data\EV\vysledky.txt
*** Status: Normal completion
--- Job EV_VD.gms Stop 04/30/25 14:09:47 elapsed 0:00:00.134
